array [1..5] of int: X_INTRODUCED_47_ = [-20,-18,-15,-13,-14];
array [1..3] of int: X_INTRODUCED_85_ = [1,1,1];
array [1..2] of int: X_INTRODUCED_91_ = [1,1];
array [1..36] of int: X_INTRODUCED_144_ = [1,-30,-30,-30,-30,-30,-30,-30,-27,-27,-27,-27,-27,-27,-27,-23,-23,-23,-23,-23,-23,-23,-20,-20,-20,-20,-20,-20,-20,-22,-22,-22,-22,-22,-22,-22];
var 0..1: X_INTRODUCED_0_:: mzn_path("/home/longdang/WorkStation/University/cpTreeEstimation/benchmark_models/trucking/trucking.mzn|28|32|28|32|id|x;|0|0|0|0|il|0;");
var 0..1: X_INTRODUCED_1_:: mzn_path("/home/longdang/WorkStation/University/cpTreeEstimation/benchmark_models/trucking/trucking.mzn|28|32|28|32|id|x;|0|0|0|0|il|1;");
var 0..1: X_INTRODUCED_2_:: mzn_path("/home/longdang/WorkStation/University/cpTreeEstimation/benchmark_models/trucking/trucking.mzn|28|32|28|32|id|x;|0|0|0|0|il|2;");
var 0..1: X_INTRODUCED_3_:: mzn_path("/home/longdang/WorkStation/University/cpTreeEstimation/benchmark_models/trucking/trucking.mzn|28|32|28|32|id|x;|0|0|0|0|il|3;");
var 0..1: X_INTRODUCED_4_:: mzn_path("/home/longdang/WorkStation/University/cpTreeEstimation/benchmark_models/trucking/trucking.mzn|28|32|28|32|id|x;|0|0|0|0|il|4;");
var 0..1: X_INTRODUCED_5_:: mzn_path("/home/longdang/WorkStation/University/cpTreeEstimation/benchmark_models/trucking/trucking.mzn|28|32|28|32|id|x;|0|0|0|0|il|5;");
var 0..1: X_INTRODUCED_6_:: mzn_path("/home/longdang/WorkStation/University/cpTreeEstimation/benchmark_models/trucking/trucking.mzn|28|32|28|32|id|x;|0|0|0|0|il|6;");
var 0..1: X_INTRODUCED_7_:: mzn_path("/home/longdang/WorkStation/University/cpTreeEstimation/benchmark_models/trucking/trucking.mzn|28|32|28|32|id|x;|0|0|0|0|il|7;");
var 0..1: X_INTRODUCED_8_:: mzn_path("/home/longdang/WorkStation/University/cpTreeEstimation/benchmark_models/trucking/trucking.mzn|28|32|28|32|id|x;|0|0|0|0|il|8;");
var 0..1: X_INTRODUCED_9_:: mzn_path("/home/longdang/WorkStation/University/cpTreeEstimation/benchmark_models/trucking/trucking.mzn|28|32|28|32|id|x;|0|0|0|0|il|9;");
var 0..1: X_INTRODUCED_10_:: mzn_path("/home/longdang/WorkStation/University/cpTreeEstimation/benchmark_models/trucking/trucking.mzn|28|32|28|32|id|x;|0|0|0|0|il|10;");
var 0..1: X_INTRODUCED_11_:: mzn_path("/home/longdang/WorkStation/University/cpTreeEstimation/benchmark_models/trucking/trucking.mzn|28|32|28|32|id|x;|0|0|0|0|il|11;");
var 0..1: X_INTRODUCED_12_:: mzn_path("/home/longdang/WorkStation/University/cpTreeEstimation/benchmark_models/trucking/trucking.mzn|28|32|28|32|id|x;|0|0|0|0|il|12;");
var 0..1: X_INTRODUCED_13_:: mzn_path("/home/longdang/WorkStation/University/cpTreeEstimation/benchmark_models/trucking/trucking.mzn|28|32|28|32|id|x;|0|0|0|0|il|13;");
var 0..1: X_INTRODUCED_14_:: mzn_path("/home/longdang/WorkStation/University/cpTreeEstimation/benchmark_models/trucking/trucking.mzn|28|32|28|32|id|x;|0|0|0|0|il|14;");
var 0..1: X_INTRODUCED_15_:: mzn_path("/home/longdang/WorkStation/University/cpTreeEstimation/benchmark_models/trucking/trucking.mzn|28|32|28|32|id|x;|0|0|0|0|il|15;");
var 0..1: X_INTRODUCED_16_:: mzn_path("/home/longdang/WorkStation/University/cpTreeEstimation/benchmark_models/trucking/trucking.mzn|28|32|28|32|id|x;|0|0|0|0|il|16;");
var 0..1: X_INTRODUCED_17_:: mzn_path("/home/longdang/WorkStation/University/cpTreeEstimation/benchmark_models/trucking/trucking.mzn|28|32|28|32|id|x;|0|0|0|0|il|17;");
var 0..1: X_INTRODUCED_18_:: mzn_path("/home/longdang/WorkStation/University/cpTreeEstimation/benchmark_models/trucking/trucking.mzn|28|32|28|32|id|x;|0|0|0|0|il|18;");
var 0..1: X_INTRODUCED_19_:: mzn_path("/home/longdang/WorkStation/University/cpTreeEstimation/benchmark_models/trucking/trucking.mzn|28|32|28|32|id|x;|0|0|0|0|il|19;");
var 0..1: X_INTRODUCED_20_:: mzn_path("/home/longdang/WorkStation/University/cpTreeEstimation/benchmark_models/trucking/trucking.mzn|28|32|28|32|id|x;|0|0|0|0|il|20;");
var 0..1: X_INTRODUCED_21_:: mzn_path("/home/longdang/WorkStation/University/cpTreeEstimation/benchmark_models/trucking/trucking.mzn|28|32|28|32|id|x;|0|0|0|0|il|21;");
var 0..1: X_INTRODUCED_22_:: mzn_path("/home/longdang/WorkStation/University/cpTreeEstimation/benchmark_models/trucking/trucking.mzn|28|32|28|32|id|x;|0|0|0|0|il|22;");
var 0..1: X_INTRODUCED_23_:: mzn_path("/home/longdang/WorkStation/University/cpTreeEstimation/benchmark_models/trucking/trucking.mzn|28|32|28|32|id|x;|0|0|0|0|il|23;");
var 0..1: X_INTRODUCED_24_:: mzn_path("/home/longdang/WorkStation/University/cpTreeEstimation/benchmark_models/trucking/trucking.mzn|28|32|28|32|id|x;|0|0|0|0|il|24;");
var 0..1: X_INTRODUCED_25_:: mzn_path("/home/longdang/WorkStation/University/cpTreeEstimation/benchmark_models/trucking/trucking.mzn|28|32|28|32|id|x;|0|0|0|0|il|25;");
var 0..1: X_INTRODUCED_26_:: mzn_path("/home/longdang/WorkStation/University/cpTreeEstimation/benchmark_models/trucking/trucking.mzn|28|32|28|32|id|x;|0|0|0|0|il|26;");
var 0..1: X_INTRODUCED_27_:: mzn_path("/home/longdang/WorkStation/University/cpTreeEstimation/benchmark_models/trucking/trucking.mzn|28|32|28|32|id|x;|0|0|0|0|il|27;");
var 0..1: X_INTRODUCED_28_:: mzn_path("/home/longdang/WorkStation/University/cpTreeEstimation/benchmark_models/trucking/trucking.mzn|28|32|28|32|id|x;|0|0|0|0|il|28;");
var 0..1: X_INTRODUCED_29_:: mzn_path("/home/longdang/WorkStation/University/cpTreeEstimation/benchmark_models/trucking/trucking.mzn|28|32|28|32|id|x;|0|0|0|0|il|29;");
var 0..1: X_INTRODUCED_30_:: mzn_path("/home/longdang/WorkStation/University/cpTreeEstimation/benchmark_models/trucking/trucking.mzn|28|32|28|32|id|x;|0|0|0|0|il|30;");
var 0..1: X_INTRODUCED_31_:: mzn_path("/home/longdang/WorkStation/University/cpTreeEstimation/benchmark_models/trucking/trucking.mzn|28|32|28|32|id|x;|0|0|0|0|il|31;");
var 0..1: X_INTRODUCED_32_:: mzn_path("/home/longdang/WorkStation/University/cpTreeEstimation/benchmark_models/trucking/trucking.mzn|28|32|28|32|id|x;|0|0|0|0|il|32;");
var 0..1: X_INTRODUCED_33_:: mzn_path("/home/longdang/WorkStation/University/cpTreeEstimation/benchmark_models/trucking/trucking.mzn|28|32|28|32|id|x;|0|0|0|0|il|33;");
var 0..1: X_INTRODUCED_34_:: mzn_path("/home/longdang/WorkStation/University/cpTreeEstimation/benchmark_models/trucking/trucking.mzn|28|32|28|32|id|x;|0|0|0|0|il|34;");
var 0..854: total_cost:: output_var:: is_defined_var:: mzn_path("/home/longdang/WorkStation/University/cpTreeEstimation/benchmark_models/trucking/trucking.mzn|50|10|50|19|id|total_cost;/home/longdang/WorkStation/University/cpTreeEstimation/benchmark_models/trucking/trucking.mzn|50|1|50|19|vd;");
array [1..35] of var int: x:: output_array([1..5,1..7]) = [X_INTRODUCED_0_,X_INTRODUCED_1_,X_INTRODUCED_2_,X_INTRODUCED_3_,X_INTRODUCED_4_,X_INTRODUCED_5_,X_INTRODUCED_6_,X_INTRODUCED_7_,X_INTRODUCED_8_,X_INTRODUCED_9_,X_INTRODUCED_10_,X_INTRODUCED_11_,X_INTRODUCED_12_,X_INTRODUCED_13_,X_INTRODUCED_14_,X_INTRODUCED_15_,X_INTRODUCED_16_,X_INTRODUCED_17_,X_INTRODUCED_18_,X_INTRODUCED_19_,X_INTRODUCED_20_,X_INTRODUCED_21_,X_INTRODUCED_22_,X_INTRODUCED_23_,X_INTRODUCED_24_,X_INTRODUCED_25_,X_INTRODUCED_26_,X_INTRODUCED_27_,X_INTRODUCED_28_,X_INTRODUCED_29_,X_INTRODUCED_30_,X_INTRODUCED_31_,X_INTRODUCED_32_,X_INTRODUCED_33_,X_INTRODUCED_34_];
array [1..35] of var int: X_INTRODUCED_97_ ::var_is_introduced  = [X_INTRODUCED_0_,X_INTRODUCED_1_,X_INTRODUCED_2_,X_INTRODUCED_3_,X_INTRODUCED_4_,X_INTRODUCED_5_,X_INTRODUCED_6_,X_INTRODUCED_7_,X_INTRODUCED_8_,X_INTRODUCED_9_,X_INTRODUCED_10_,X_INTRODUCED_11_,X_INTRODUCED_12_,X_INTRODUCED_13_,X_INTRODUCED_14_,X_INTRODUCED_15_,X_INTRODUCED_16_,X_INTRODUCED_17_,X_INTRODUCED_18_,X_INTRODUCED_19_,X_INTRODUCED_20_,X_INTRODUCED_21_,X_INTRODUCED_22_,X_INTRODUCED_23_,X_INTRODUCED_24_,X_INTRODUCED_25_,X_INTRODUCED_26_,X_INTRODUCED_27_,X_INTRODUCED_28_,X_INTRODUCED_29_,X_INTRODUCED_30_,X_INTRODUCED_31_,X_INTRODUCED_32_,X_INTRODUCED_33_,X_INTRODUCED_34_];
array [1..36] of var int: X_INTRODUCED_143_ ::var_is_introduced  = [total_cost,X_INTRODUCED_0_,X_INTRODUCED_1_,X_INTRODUCED_2_,X_INTRODUCED_3_,X_INTRODUCED_4_,X_INTRODUCED_5_,X_INTRODUCED_6_,X_INTRODUCED_7_,X_INTRODUCED_8_,X_INTRODUCED_9_,X_INTRODUCED_10_,X_INTRODUCED_11_,X_INTRODUCED_12_,X_INTRODUCED_13_,X_INTRODUCED_14_,X_INTRODUCED_15_,X_INTRODUCED_16_,X_INTRODUCED_17_,X_INTRODUCED_18_,X_INTRODUCED_19_,X_INTRODUCED_20_,X_INTRODUCED_21_,X_INTRODUCED_22_,X_INTRODUCED_23_,X_INTRODUCED_24_,X_INTRODUCED_25_,X_INTRODUCED_26_,X_INTRODUCED_27_,X_INTRODUCED_28_,X_INTRODUCED_29_,X_INTRODUCED_30_,X_INTRODUCED_31_,X_INTRODUCED_32_,X_INTRODUCED_33_,X_INTRODUCED_34_];
constraint int_lin_le(X_INTRODUCED_47_,[X_INTRODUCED_0_,X_INTRODUCED_7_,X_INTRODUCED_14_,X_INTRODUCED_21_,X_INTRODUCED_28_],-27):: mzn_path("/home/longdang/WorkStation/University/cpTreeEstimation/benchmark_models/trucking/trucking.mzn|31|5|34|5|ca|forall;/home/longdang/WorkStation/University/cpTreeEstimation/benchmark_models/trucking/trucking.mzn|31|5|34|5|ac;/home/longdang/WorkStation/University/cpTreeEstimation/benchmark_models/trucking/trucking.mzn|31|12|31|12|t=1;/home/longdang/WorkStation/University/cpTreeEstimation/benchmark_models/trucking/trucking.mzn|32|9|32|55|bin|'>=';/home/longdang/WorkStation/University/cpTreeEstimation/benchmark_models/trucking/trucking.mzn|32|9|32|55|ca|int_lin_le;");
constraint int_lin_le(X_INTRODUCED_47_,[X_INTRODUCED_1_,X_INTRODUCED_8_,X_INTRODUCED_15_,X_INTRODUCED_22_,X_INTRODUCED_29_],-11):: mzn_path("/home/longdang/WorkStation/University/cpTreeEstimation/benchmark_models/trucking/trucking.mzn|31|5|34|5|ca|forall;/home/longdang/WorkStation/University/cpTreeEstimation/benchmark_models/trucking/trucking.mzn|31|5|34|5|ac;/home/longdang/WorkStation/University/cpTreeEstimation/benchmark_models/trucking/trucking.mzn|31|12|31|12|t=2;/home/longdang/WorkStation/University/cpTreeEstimation/benchmark_models/trucking/trucking.mzn|32|9|32|55|bin|'>=';/home/longdang/WorkStation/University/cpTreeEstimation/benchmark_models/trucking/trucking.mzn|32|9|32|55|ca|int_lin_le;");
constraint int_lin_le(X_INTRODUCED_47_,[X_INTRODUCED_2_,X_INTRODUCED_9_,X_INTRODUCED_16_,X_INTRODUCED_23_,X_INTRODUCED_30_],-14):: mzn_path("/home/longdang/WorkStation/University/cpTreeEstimation/benchmark_models/trucking/trucking.mzn|31|5|34|5|ca|forall;/home/longdang/WorkStation/University/cpTreeEstimation/benchmark_models/trucking/trucking.mzn|31|5|34|5|ac;/home/longdang/WorkStation/University/cpTreeEstimation/benchmark_models/trucking/trucking.mzn|31|12|31|12|t=3;/home/longdang/WorkStation/University/cpTreeEstimation/benchmark_models/trucking/trucking.mzn|32|9|32|55|bin|'>=';/home/longdang/WorkStation/University/cpTreeEstimation/benchmark_models/trucking/trucking.mzn|32|9|32|55|ca|int_lin_le;");
constraint int_lin_le(X_INTRODUCED_47_,[X_INTRODUCED_3_,X_INTRODUCED_10_,X_INTRODUCED_17_,X_INTRODUCED_24_,X_INTRODUCED_31_],-25):: mzn_path("/home/longdang/WorkStation/University/cpTreeEstimation/benchmark_models/trucking/trucking.mzn|31|5|34|5|ca|forall;/home/longdang/WorkStation/University/cpTreeEstimation/benchmark_models/trucking/trucking.mzn|31|5|34|5|ac;/home/longdang/WorkStation/University/cpTreeEstimation/benchmark_models/trucking/trucking.mzn|31|12|31|12|t=4;/home/longdang/WorkStation/University/cpTreeEstimation/benchmark_models/trucking/trucking.mzn|32|9|32|55|bin|'>=';/home/longdang/WorkStation/University/cpTreeEstimation/benchmark_models/trucking/trucking.mzn|32|9|32|55|ca|int_lin_le;");
constraint int_lin_le(X_INTRODUCED_47_,[X_INTRODUCED_4_,X_INTRODUCED_11_,X_INTRODUCED_18_,X_INTRODUCED_25_,X_INTRODUCED_32_],-22):: mzn_path("/home/longdang/WorkStation/University/cpTreeEstimation/benchmark_models/trucking/trucking.mzn|31|5|34|5|ca|forall;/home/longdang/WorkStation/University/cpTreeEstimation/benchmark_models/trucking/trucking.mzn|31|5|34|5|ac;/home/longdang/WorkStation/University/cpTreeEstimation/benchmark_models/trucking/trucking.mzn|31|12|31|12|t=5;/home/longdang/WorkStation/University/cpTreeEstimation/benchmark_models/trucking/trucking.mzn|32|9|32|55|bin|'>=';/home/longdang/WorkStation/University/cpTreeEstimation/benchmark_models/trucking/trucking.mzn|32|9|32|55|ca|int_lin_le;");
constraint int_lin_le(X_INTRODUCED_47_,[X_INTRODUCED_5_,X_INTRODUCED_12_,X_INTRODUCED_19_,X_INTRODUCED_26_,X_INTRODUCED_33_],-21):: mzn_path("/home/longdang/WorkStation/University/cpTreeEstimation/benchmark_models/trucking/trucking.mzn|31|5|34|5|ca|forall;/home/longdang/WorkStation/University/cpTreeEstimation/benchmark_models/trucking/trucking.mzn|31|5|34|5|ac;/home/longdang/WorkStation/University/cpTreeEstimation/benchmark_models/trucking/trucking.mzn|31|12|31|12|t=6;/home/longdang/WorkStation/University/cpTreeEstimation/benchmark_models/trucking/trucking.mzn|32|9|32|55|bin|'>=';/home/longdang/WorkStation/University/cpTreeEstimation/benchmark_models/trucking/trucking.mzn|32|9|32|55|ca|int_lin_le;");
constraint int_lin_le(X_INTRODUCED_47_,[X_INTRODUCED_6_,X_INTRODUCED_13_,X_INTRODUCED_20_,X_INTRODUCED_27_,X_INTRODUCED_34_],-43):: mzn_path("/home/longdang/WorkStation/University/cpTreeEstimation/benchmark_models/trucking/trucking.mzn|31|5|34|5|ca|forall;/home/longdang/WorkStation/University/cpTreeEstimation/benchmark_models/trucking/trucking.mzn|31|5|34|5|ac;/home/longdang/WorkStation/University/cpTreeEstimation/benchmark_models/trucking/trucking.mzn|31|12|31|12|t=7;/home/longdang/WorkStation/University/cpTreeEstimation/benchmark_models/trucking/trucking.mzn|32|9|32|55|bin|'>=';/home/longdang/WorkStation/University/cpTreeEstimation/benchmark_models/trucking/trucking.mzn|32|9|32|55|ca|int_lin_le;");
constraint int_lin_le(X_INTRODUCED_85_,[X_INTRODUCED_21_,X_INTRODUCED_22_,X_INTRODUCED_23_],1):: mzn_path("/home/longdang/WorkStation/University/cpTreeEstimation/benchmark_models/trucking/trucking.mzn|37|5|39|5|ca|forall;/home/longdang/WorkStation/University/cpTreeEstimation/benchmark_models/trucking/trucking.mzn|37|5|39|5|ac;/home/longdang/WorkStation/University/cpTreeEstimation/benchmark_models/trucking/trucking.mzn|37|12|37|14|tau=1;/home/longdang/WorkStation/University/cpTreeEstimation/benchmark_models/trucking/trucking.mzn|38|9|38|49|bin|'<=';/home/longdang/WorkStation/University/cpTreeEstimation/benchmark_models/trucking/trucking.mzn|38|9|38|49|ca|int_lin_le;");
constraint int_lin_le(X_INTRODUCED_85_,[X_INTRODUCED_22_,X_INTRODUCED_23_,X_INTRODUCED_24_],1):: mzn_path("/home/longdang/WorkStation/University/cpTreeEstimation/benchmark_models/trucking/trucking.mzn|37|5|39|5|ca|forall;/home/longdang/WorkStation/University/cpTreeEstimation/benchmark_models/trucking/trucking.mzn|37|5|39|5|ac;/home/longdang/WorkStation/University/cpTreeEstimation/benchmark_models/trucking/trucking.mzn|37|12|37|14|tau=2;/home/longdang/WorkStation/University/cpTreeEstimation/benchmark_models/trucking/trucking.mzn|38|9|38|49|bin|'<=';/home/longdang/WorkStation/University/cpTreeEstimation/benchmark_models/trucking/trucking.mzn|38|9|38|49|ca|int_lin_le;");
constraint int_lin_le(X_INTRODUCED_85_,[X_INTRODUCED_23_,X_INTRODUCED_24_,X_INTRODUCED_25_],1):: mzn_path("/home/longdang/WorkStation/University/cpTreeEstimation/benchmark_models/trucking/trucking.mzn|37|5|39|5|ca|forall;/home/longdang/WorkStation/University/cpTreeEstimation/benchmark_models/trucking/trucking.mzn|37|5|39|5|ac;/home/longdang/WorkStation/University/cpTreeEstimation/benchmark_models/trucking/trucking.mzn|37|12|37|14|tau=3;/home/longdang/WorkStation/University/cpTreeEstimation/benchmark_models/trucking/trucking.mzn|38|9|38|49|bin|'<=';/home/longdang/WorkStation/University/cpTreeEstimation/benchmark_models/trucking/trucking.mzn|38|9|38|49|ca|int_lin_le;");
constraint int_lin_le(X_INTRODUCED_85_,[X_INTRODUCED_24_,X_INTRODUCED_25_,X_INTRODUCED_26_],1):: mzn_path("/home/longdang/WorkStation/University/cpTreeEstimation/benchmark_models/trucking/trucking.mzn|37|5|39|5|ca|forall;/home/longdang/WorkStation/University/cpTreeEstimation/benchmark_models/trucking/trucking.mzn|37|5|39|5|ac;/home/longdang/WorkStation/University/cpTreeEstimation/benchmark_models/trucking/trucking.mzn|37|12|37|14|tau=4;/home/longdang/WorkStation/University/cpTreeEstimation/benchmark_models/trucking/trucking.mzn|38|9|38|49|bin|'<=';/home/longdang/WorkStation/University/cpTreeEstimation/benchmark_models/trucking/trucking.mzn|38|9|38|49|ca|int_lin_le;");
constraint int_lin_le(X_INTRODUCED_85_,[X_INTRODUCED_25_,X_INTRODUCED_26_,X_INTRODUCED_27_],1):: mzn_path("/home/longdang/WorkStation/University/cpTreeEstimation/benchmark_models/trucking/trucking.mzn|37|5|39|5|ca|forall;/home/longdang/WorkStation/University/cpTreeEstimation/benchmark_models/trucking/trucking.mzn|37|5|39|5|ac;/home/longdang/WorkStation/University/cpTreeEstimation/benchmark_models/trucking/trucking.mzn|37|12|37|14|tau=5;/home/longdang/WorkStation/University/cpTreeEstimation/benchmark_models/trucking/trucking.mzn|38|9|38|49|bin|'<=';/home/longdang/WorkStation/University/cpTreeEstimation/benchmark_models/trucking/trucking.mzn|38|9|38|49|ca|int_lin_le;");
constraint int_lin_le(X_INTRODUCED_91_,[X_INTRODUCED_0_,X_INTRODUCED_1_],1):: mzn_path("/home/longdang/WorkStation/University/cpTreeEstimation/benchmark_models/trucking/trucking.mzn|42|5|44|5|ca|forall;/home/longdang/WorkStation/University/cpTreeEstimation/benchmark_models/trucking/trucking.mzn|42|5|44|5|ac;/home/longdang/WorkStation/University/cpTreeEstimation/benchmark_models/trucking/trucking.mzn|42|12|42|14|tau=1;/home/longdang/WorkStation/University/cpTreeEstimation/benchmark_models/trucking/trucking.mzn|43|9|43|49|bin|'<=';/home/longdang/WorkStation/University/cpTreeEstimation/benchmark_models/trucking/trucking.mzn|43|9|43|49|ca|int_lin_le;");
constraint int_lin_le(X_INTRODUCED_91_,[X_INTRODUCED_1_,X_INTRODUCED_2_],1):: mzn_path("/home/longdang/WorkStation/University/cpTreeEstimation/benchmark_models/trucking/trucking.mzn|42|5|44|5|ca|forall;/home/longdang/WorkStation/University/cpTreeEstimation/benchmark_models/trucking/trucking.mzn|42|5|44|5|ac;/home/longdang/WorkStation/University/cpTreeEstimation/benchmark_models/trucking/trucking.mzn|42|12|42|14|tau=2;/home/longdang/WorkStation/University/cpTreeEstimation/benchmark_models/trucking/trucking.mzn|43|9|43|49|bin|'<=';/home/longdang/WorkStation/University/cpTreeEstimation/benchmark_models/trucking/trucking.mzn|43|9|43|49|ca|int_lin_le;");
constraint int_lin_le(X_INTRODUCED_91_,[X_INTRODUCED_2_,X_INTRODUCED_3_],1):: mzn_path("/home/longdang/WorkStation/University/cpTreeEstimation/benchmark_models/trucking/trucking.mzn|42|5|44|5|ca|forall;/home/longdang/WorkStation/University/cpTreeEstimation/benchmark_models/trucking/trucking.mzn|42|5|44|5|ac;/home/longdang/WorkStation/University/cpTreeEstimation/benchmark_models/trucking/trucking.mzn|42|12|42|14|tau=3;/home/longdang/WorkStation/University/cpTreeEstimation/benchmark_models/trucking/trucking.mzn|43|9|43|49|bin|'<=';/home/longdang/WorkStation/University/cpTreeEstimation/benchmark_models/trucking/trucking.mzn|43|9|43|49|ca|int_lin_le;");
constraint int_lin_le(X_INTRODUCED_91_,[X_INTRODUCED_3_,X_INTRODUCED_4_],1):: mzn_path("/home/longdang/WorkStation/University/cpTreeEstimation/benchmark_models/trucking/trucking.mzn|42|5|44|5|ca|forall;/home/longdang/WorkStation/University/cpTreeEstimation/benchmark_models/trucking/trucking.mzn|42|5|44|5|ac;/home/longdang/WorkStation/University/cpTreeEstimation/benchmark_models/trucking/trucking.mzn|42|12|42|14|tau=4;/home/longdang/WorkStation/University/cpTreeEstimation/benchmark_models/trucking/trucking.mzn|43|9|43|49|bin|'<=';/home/longdang/WorkStation/University/cpTreeEstimation/benchmark_models/trucking/trucking.mzn|43|9|43|49|ca|int_lin_le;");
constraint int_lin_le(X_INTRODUCED_91_,[X_INTRODUCED_4_,X_INTRODUCED_5_],1):: mzn_path("/home/longdang/WorkStation/University/cpTreeEstimation/benchmark_models/trucking/trucking.mzn|42|5|44|5|ca|forall;/home/longdang/WorkStation/University/cpTreeEstimation/benchmark_models/trucking/trucking.mzn|42|5|44|5|ac;/home/longdang/WorkStation/University/cpTreeEstimation/benchmark_models/trucking/trucking.mzn|42|12|42|14|tau=5;/home/longdang/WorkStation/University/cpTreeEstimation/benchmark_models/trucking/trucking.mzn|43|9|43|49|bin|'<=';/home/longdang/WorkStation/University/cpTreeEstimation/benchmark_models/trucking/trucking.mzn|43|9|43|49|ca|int_lin_le;");
constraint int_lin_le(X_INTRODUCED_91_,[X_INTRODUCED_5_,X_INTRODUCED_6_],1):: mzn_path("/home/longdang/WorkStation/University/cpTreeEstimation/benchmark_models/trucking/trucking.mzn|42|5|44|5|ca|forall;/home/longdang/WorkStation/University/cpTreeEstimation/benchmark_models/trucking/trucking.mzn|42|5|44|5|ac;/home/longdang/WorkStation/University/cpTreeEstimation/benchmark_models/trucking/trucking.mzn|42|12|42|14|tau=6;/home/longdang/WorkStation/University/cpTreeEstimation/benchmark_models/trucking/trucking.mzn|43|9|43|49|bin|'<=';/home/longdang/WorkStation/University/cpTreeEstimation/benchmark_models/trucking/trucking.mzn|43|9|43|49|ca|int_lin_le;");
constraint int_lin_eq(X_INTRODUCED_144_,X_INTRODUCED_143_,0):: defines_var(total_cost):: mzn_path("/home/longdang/WorkStation/University/cpTreeEstimation/benchmark_models/trucking/trucking.mzn|52|5|52|68|bin|'=';/home/longdang/WorkStation/University/cpTreeEstimation/benchmark_models/trucking/trucking.mzn|52|5|52|68|ca|int_lin_eq;");
solve :: int_search(X_INTRODUCED_97_,smallest,indomain_min,complete) minimize total_cost;
